PROBLEM NAME: 	berlin52-TTP_trivialized
KNAPSACK DATA TYPE: 	bounded_strongly_corr
DIMENSION:	5
NUMBER OF ITEMS: 	6
CAPACITY OF KNAPSACK: 	33
MIN SPEED: 	0.1
MAX SPEED: 	1
RENTING RATIO: 	0.67
EDGE_WEIGHT_TYPE:	CEIL_2D
NODE_COORD_SECTION	(INDEX, X, Y): 
1	11.0	14.0
2	8.0	5.0
3	9.0	3.0
4	13.0	10.0
5	18.0	4.0
ITEMS SECTION	(INDEX, PROFIT, WEIGHT, ASSIGNED NODE NUMBER): 
1	40	15	2
2	25	11	2
3	11	8	4
4	9	18	3
5	30	17	4
6	15	6	5

